\ENCODING=ISO-8859-1
\Problem name: MIP2

Minimize
 obj1: x0_0 + x0_1 + x0_2 + x0_3 + x1_0 + x1_1 + x1_2 + x1_3 + z0_0 + z0_1
       + z0_2 + z0_3 + z1_0 + z1_1 + z1_2 + z1_3 + z2_0 + z2_1 + z2_2 + z2_3
       + z3_0 + z3_1 + z3_2 + z3_3 + s0 + s1 + s2 + s3 + c0 + c1 + c2 + c3 + t0
       + t1 + t2 + t3 + Tmax
Subject To
 a0: x0_0 + x1_0  = 1
 a1: x0_1 + x1_1  = 1
 a2: x0_2 + x1_2  = 1
 a3: x0_3 + x1_3  = 1
Bounds
 0 <= x0_0 <= 1
 0 <= x0_1 <= 1
 0 <= x0_2 <= 1
 0 <= x0_3 <= 1
 0 <= x1_0 <= 1
 0 <= x1_1 <= 1
 0 <= x1_2 <= 1
 0 <= x1_3 <= 1
 0 <= z0_0 <= 1
 0 <= z0_1 <= 1
 0 <= z0_2 <= 1
 0 <= z0_3 <= 1
 0 <= z1_0 <= 1
 0 <= z1_1 <= 1
 0 <= z1_2 <= 1
 0 <= z1_3 <= 1
 0 <= z2_0 <= 1
 0 <= z2_1 <= 1
 0 <= z2_2 <= 1
 0 <= z2_3 <= 1
 0 <= z3_0 <= 1
 0 <= z3_1 <= 1
 0 <= z3_2 <= 1
 0 <= z3_3 <= 1
 0 <= s0 <= 50000
 0 <= s1 <= 50000
 0 <= s2 <= 50000
 0 <= s3 <= 50000
 0 <= c0 <= 50000
 0 <= c1 <= 50000
 0 <= c2 <= 50000
 0 <= c3 <= 50000
 0 <= t0 <= 50000
 0 <= t1 <= 50000
 0 <= t2 <= 50000
 0 <= t3 <= 50000
 0 <= Tmax <= 50000
End
